NAME : n100w60.004.834.tour
COMMENT : Length = 834
COMMENT : Found by LKH [Keld Helsgaun] Tue May  2 05:48:14 2017
TYPE : TOUR
DIMENSION : 101
TOUR_SECTION
1
94
58
42
82
98
9
59
39
75
53
35
13
84
41
5
50
70
80
25
47
55
66
11
95
23
2
100
30
96
31
67
26
21
81
79
15
86
27
92
38
61
17
57
36
19
85
77
60
20
69
44
48
7
73
52
40
64
72
90
29
87
32
71
54
22
65
51
91
46
49
56
74
78
43
68
12
18
33
14
37
88
8
10
93
16
99
3
83
97
62
89
45
28
24
76
6
4
101
34
63
-1
EOF
